     Program PWSCF v.7.0 starts on 24Aug2023 at 20: 7:43

     Waiting for input...
     Reading input from standard input

     Current dimensions of program PWSCF are:
     Max number of different atomic species (ntypx) = 10
     Max number of k-points (npk) =  40000
     Max angular momentum in pseudopotentials (lmaxx) =  4

     Using Slab Decomposition

     bravais-lattice index     =            4
     lattice parameter (alat)  =       4.7243  a.u.
     unit-cell volume          =     547.8965 (a.u.)^3
     number of atoms/cell      =            2
     number of atomic types    =            1
     number of electrons       =         8.00
     number of Kohn-Sham states=            8
     kinetic-energy cutoff     =      60.0000  Ry
     charge density cutoff     =     240.0000  Ry
     scf convergence threshold =      1.0E-09
     mixing beta               =       0.7000
     number of iterations used =            8  plain     mixing
     energy convergence thresh.=      1.0E-05
     force convergence thresh. =      1.0E-04
     press convergence thresh. =      5.0E-02
     Exchange-correlation= PBE
                           (   1   4   3   4   0   0   0)
     nstep                     =           50

     celldm(1)=   4.724315  celldm(2)=   0.000000  celldm(3)=   6.000000
     celldm(4)=   0.000000  celldm(5)=   0.000000  celldm(6)=   0.000000

     crystal axes: (cart. coord. in units of alat)
               a(1) = (   1.000000   0.000000   0.000000 )
               a(2) = (  -0.500000   0.866025   0.000000 )
               a(3) = (   0.000000   0.000000   6.000000 )

     reciprocal axes: (cart. coord. in units 2 pi/alat)
               b(1) = (  1.000000  0.577350 -0.000000 )
               b(2) = (  0.000000  1.154701  0.000000 )
               b(3) = (  0.000000 -0.000000  0.166667 )

     PseudoPot. # 1 for C  read from file:
     ../pseudo/C.pbe-n-rrkjus_psl.0.1.UPF
     MD5 check sum: 96a6a315177d77e6c95bf6fd3870f9e3
     Pseudo is Ultrasoft + core correction, Zval =  4.0
     Generated using &quot;atomic&quot; code by A. Dal Corso  v.6.3MaX
     Using radial grid of 1073 points,  4 beta functions with:
                l(1) =   0
                l(2) =   0
                l(3) =   1
                l(4) =   1
     Q(r) pseudized with 0 coefficients

     atomic species   valence    mass     pseudopotential
        C              4.00    12.01070     C ( 1.00)

     24 Sym. Ops., with inversion, found

   Cartesian axes

     site n.     atom                  positions (alat units)
         1           C   tau(   1) = (   0.0000000   0.5773503   3.0000000  )
         2           C   tau(   2) = (   0.5000000   0.2886751   3.0000000  )

     number of k points=    19  Marzari-Vanderbilt smearing, width (Ry)=  0.0200
                       cart. coord. in units 2pi/alat
        k(    1) = (   0.0000000   0.0000000   0.0000000), wk =   0.0138889
        k(    2) = (   0.0000000   0.0962250   0.0000000), wk =   0.0833333
        k(    3) = (   0.0000000   0.1924501   0.0000000), wk =   0.0833333
        k(    4) = (   0.0000000   0.2886751   0.0000000), wk =   0.0833333
        k(    5) = (   0.0000000   0.3849002   0.0000000), wk =   0.0833333
        k(    6) = (   0.0000000   0.4811252   0.0000000), wk =   0.0833333
        k(    7) = (   0.0000000  -0.5773503   0.0000000), wk =   0.0416667
        k(    8) = (   0.0833333   0.1443376   0.0000000), wk =   0.0833333
        k(    9) = (   0.0833333   0.2405626   0.0000000), wk =   0.1666667
        k(   10) = (   0.0833333   0.3367877   0.0000000), wk =   0.1666667
        k(   11) = (   0.0833333   0.4330127   0.0000000), wk =   0.1666667
        k(   12) = (   0.0833333   0.5292377   0.0000000), wk =   0.1666667
        k(   13) = (   0.1666667   0.2886751   0.0000000), wk =   0.0833333
        k(   14) = (   0.1666667   0.3849002   0.0000000), wk =   0.1666667
        k(   15) = (   0.1666667   0.4811252   0.0000000), wk =   0.1666667
        k(   16) = (   0.1666667   0.5773503   0.0000000), wk =   0.0833333
        k(   17) = (   0.2500000   0.4330127   0.0000000), wk =   0.0833333
        k(   18) = (   0.2500000   0.5292377   0.0000000), wk =   0.1666667
        k(   19) = (   0.3333333   0.5773503   0.0000000), wk =   0.0277778

     Check: negative core charge=   -0.000003

     Initial potential from superposition of free atoms

     starting charge       7.9999, renormalised to       8.0000

     negative rho (up, down):  9.191E-05 0.000E+00
     Starting wfcs are    8 randomized atomic wfcs

     Self-consistent Calculation

     iteration #  1     ecut=    60.00 Ry     beta= 0.70
     Davidson diagonalization with overlap
     ethr =  1.00E-02,  avg # of iterations =  6.1

     Threshold (ethr) on eigenvalues was too large:
     Diagonalizing with lowered threshold

     Davidson diagonalization with overlap
     ethr =  6.29E-04,  avg # of iterations =  8.4

     negative rho (up, down):  2.057E-05 0.000E+00

     total energy              =     -23.88382691 Ry
     estimated scf accuracy    <       0.17023635 Ry

[...]

     iteration #  3     ecut=    60.00 Ry     beta= 0.70
     Davidson diagonalization with overlap
     c_bands:  1 eigenvalues not converged
     c_bands:  2 eigenvalues not converged
     c_bands:  4 eigenvalues not converged
     c_bands:  4 eigenvalues not converged
     c_bands:  1 eigenvalues not converged
     c_bands:  2 eigenvalues not converged
     c_bands:  1 eigenvalues not converged
     c_bands:  1 eigenvalues not converged
     c_bands:  1 eigenvalues not converged
     c_bands:  3 eigenvalues not converged
     ethr =  6.99E-05,  avg # of iterations = 18.6

[...]

     End of self-consistent calculation

          k = 0.0000 0.0000 0.0000 (  4287 PWs)   bands (ev):

   -21.0674  -9.2279  -4.9689  -4.9689   1.3803   2.1986   2.4579   4.4316

[...]

     the Fermi energy is    -1.8456 ev

!    total energy              =     -23.90789498 Ry
     estimated scf accuracy    <          1.9E-10 Ry
     smearing contrib. (-TS)   =      -0.00018232 Ry
     internal energy E=F+TS    =     -23.90771265 Ry

     The total energy is F=E-TS. E is the sum of the following terms:
     one-electron contribution =    -152.77758147 Ry
     hartree contribution      =      77.80870509 Ry
     xc contribution           =      -8.23887517 Ry
     ewald contribution        =      59.30003890 Ry

     convergence has been achieved in  29 iterations

[...]

     Forces acting on atoms (cartesian axes, Ry/au):

     atom    1 type  1   force =    -0.00000000   -0.00000000    0.00000000
     atom    2 type  1   force =     0.00000000    0.00000000    0.00000000

     Total force =     0.000000     Total SCF correction =     0.000000

     Computing stress (Cartesian axis) and pressure

     negative rho (up, down):  1.182E-04 0.000E+00
          total   stress  (Ry/bohr**3)                   (kbar)     P=      -25.36
  -0.00025737   0.00000000   0.00000000          -37.86        0.00        0.00
   0.00000000  -0.00025737   0.00000000            0.00      -37.86        0.00
   0.00000000   0.00000000  -0.00000245            0.00        0.00       -0.36

     BFGS Geometry Optimization
     Energy error            =      0.0E+00 Ry
     Gradient error          =      1.4E-25 Ry/Bohr
     Cell gradient error     =      3.8E+01 kbar

     number of scf cycles    =   1
     number of bfgs steps    =   0

     enthalpy           new  =     -23.9078949776 Ry

     new trust radius        =       0.0301211293 bohr
     new conv_thr            =       0.0000000010 Ry

     new unit-cell volume =    540.86865 a.u.^3 (    80.14847 Ang^3 )
     density =      0.49768 g/cm^3

CELL_PARAMETERS (alat=  4.72431531)
   0.993565838   0.000000000   0.000000000
  -0.496782919   0.860453256   0.000000000
   0.000000000   0.000000000   6.000000000

ATOMIC_POSITIONS (crystal)
C             0.3333333330        0.6666666660        0.5000000000
C             0.6666666660        0.3333333330        0.5000000000

     Writing config-only to output data dir ../tmp/gr.save/
     NEW-OLD atomic charge density approx. for the potential

[...]

     negative rho (up, down):  1.329E-04 0.000E+00
     extrapolated charge    7.89605, renormalised to    8.00000

[...]

          k =-0.0000 0.0968 0.0000 (  4260 PWs)   bands (ev):

[...]

     Energy error            =      1.4E-03 Ry
     Gradient error          =      2.8E-25 Ry/Bohr
     Cell gradient error     =      2.2E+01 kbar

[...]

     enthalpy           old  =     -23.9078949776 Ry
     enthalpy           new  =     -23.9093209909 Ry

     CASE: enthalpy          _new < enthalpy          _old

[...]

     number of scf cycles    =   4
     number of bfgs steps    =   3

     enthalpy           old  =     -23.9099601365 Ry
     enthalpy           new  =     -23.9099689439 Ry

     CASE: enthalpy          _new < enthalpy          _old

     new trust radius        =       0.0001334200 bohr
     new conv_thr            =            1.0E-11 Ry

     new unit-cell volume =    532.19090 a.u.^3 (    78.86255 Ang^3 )
     density =      0.50580 g/cm^3

[...]

ATOMIC_POSITIONS (crystal)
C             0.3333333330        0.6666666660        0.5000000000
C             0.6666666660        0.3333333330        0.5000000000

     Writing config-only to output data dir ../tmp/gr.save/
     NEW-OLD atomic charge density approx. for the potential

[...]

     negative rho (up, down):  1.210E-04 0.000E+00
     extrapolated charge    8.00046, renormalised to    8.00000

[...]

     Threshold (ethr) on eigenvalues was too large:
     Diagonalizing with lowered threshold

     Davidson diagonalization with overlap
     ethr =  3.00E-10,  avg # of iterations =  4.1

[...]

     Energy error            =      8.5E-09 Ry
     Gradient error          =      1.4E-25 Ry/Bohr
     Cell gradient error     =      1.5E-03 kbar

     bfgs converged in   5 scf cycles and   4 bfgs steps
     (criteria: energy <  1.0E-05 Ry, force <  1.0E-04Ry/Bohr, cell <  5.0E-02kbar)

     End of BFGS Geometry Optimization

     Final enthalpy           =     -23.9099689524 Ry

     File ../tmp/gr.bfgs deleted, as requested
Begin final coordinates
     new unit-cell volume =    532.19090 a.u.^3 (    78.86255 Ang^3 )
     density =      0.50580 g/cm^3

CELL_PARAMETERS (alat=  4.72431531)
   0.985563172   0.000000000   0.000000000
  -0.492781586   0.853522744   0.000000000
   0.000000000   0.000000000   6.000000000

ATOMIC_POSITIONS (crystal)
C             0.3333333330        0.6666666660        0.5000000000
C             0.6666666660        0.3333333330        0.5000000000
End final coordinates

     Writing config-only to output data dir ../tmp/gr.save/

     Final scf calculation at the relaxed structure.
     The G-vectors are recalculated for the final unit cell
     Results may differ from those at the preceding step.

     Using Slab Decomposition

     bravais-lattice index     =            4
     lattice parameter (alat)  =       4.7243  a.u.
     unit-cell volume          =     532.1909 (a.u.)^3
     number of atoms/cell      =            2
     number of atomic types    =            1
     number of electrons       =         8.00
     number of Kohn-Sham states=            8
     kinetic-energy cutoff     =      60.0000  Ry
     charge density cutoff     =     240.0000  Ry
     scf convergence threshold =      1.0E-11
     mixing beta               =       0.7000
     number of iterations used =            8  plain     mixing
     press convergence thresh. =      5.0E-02
     Exchange-correlation= PBE
                           (   1   4   3   4   0   0   0)

     celldm(1)=   4.724315  celldm(2)=   0.000000  celldm(3)=   6.000000
     celldm(4)=   0.000000  celldm(5)=   0.000000  celldm(6)=   0.000000

     crystal axes: (cart. coord. in units of alat)
               a(1) = (   0.985563   0.000000   0.000000 )
               a(2) = (  -0.492782   0.853523   0.000000 )
               a(3) = (   0.000000   0.000000   6.000000 )

     reciprocal axes: (cart. coord. in units 2 pi/alat)
               b(1) = (  1.014648  0.585807 -0.000000 )
               b(2) = ( -0.000000  1.171615  0.000000 )
               b(3) = (  0.000000 -0.000000  0.166667 )

     PseudoPot. # 1 for C  read from file:
     ../pseudo/C.pbe-n-rrkjus_psl.0.1.UPF
     MD5 check sum: 96a6a315177d77e6c95bf6fd3870f9e3
     Pseudo is Ultrasoft + core correction, Zval =  4.0
     Generated using &quot;atomic&quot; code by A. Dal Corso  v.6.3MaX
     Using radial grid of 1073 points,  4 beta functions with:
                l(1) =   0
                l(2) =   0
                l(3) =   1
                l(4) =   1
     Q(r) pseudized with 0 coefficients

     atomic species   valence    mass     pseudopotential
        C              4.00    12.01070     C ( 1.00)

     24 Sym. Ops., with inversion, found

   Cartesian axes

     site n.     atom                  positions (alat units)
         1           C   tau(   1) = (   0.0000000   0.5690152   3.0000000  )
         2           C   tau(   2) = (   0.4927816   0.2845076   3.0000000  )

     number of k points=    19  Marzari-Vanderbilt smearing, width (Ry)=  0.0200
                       cart. coord. in units 2pi/alat
        k(    1) = (   0.0000000   0.0000000   0.0000000), wk =   0.0138889
        k(    2) = (  -0.0000000   0.0976346   0.0000000), wk =   0.0833333
        k(    3) = (  -0.0000000   0.1952692   0.0000000), wk =   0.0833333
        k(    4) = (  -0.0000000   0.2929037   0.0000000), wk =   0.0833333
        k(    5) = (  -0.0000000   0.3905383   0.0000000), wk =   0.0833333
        k(    6) = (  -0.0000000   0.4881729   0.0000000), wk =   0.0833333
        k(    7) = (   0.0000000  -0.5858075   0.0000000), wk =   0.0416667
        k(    8) = (   0.0845540   0.1464519   0.0000000), wk =   0.0833333
        k(    9) = (   0.0845540   0.2440864   0.0000000), wk =   0.1666667
        k(   10) = (   0.0845540   0.3417210   0.0000000), wk =   0.1666667
        k(   11) = (   0.0845540   0.4393556   0.0000000), wk =   0.1666667
        k(   12) = (   0.0845540   0.5369902   0.0000000), wk =   0.1666667
        k(   13) = (   0.1691081   0.2929037   0.0000000), wk =   0.0833333
        k(   14) = (   0.1691081   0.3905383   0.0000000), wk =   0.1666667
        k(   15) = (   0.1691081   0.4881729   0.0000000), wk =   0.1666667
        k(   16) = (   0.1691081   0.5858075   0.0000000), wk =   0.0833333
        k(   17) = (   0.2536621   0.4393556   0.0000000), wk =   0.0833333
        k(   18) = (   0.2536621   0.5369902   0.0000000), wk =   0.1666667
        k(   19) = (   0.3382161   0.5858075   0.0000000), wk =   0.0277778

     Check: negative core charge=   -0.000003

     Initial potential from superposition of free atoms

     starting charge       7.9999, renormalised to       8.0000

     negative rho (up, down):  9.023E-05 0.000E+00
     Starting wfcs are    8 randomized atomic wfcs

     Self-consistent Calculation

[...]

     iteration #  6     ecut=    60.00 Ry     beta= 0.70
     Davidson diagonalization with overlap
     c_bands:  1 eigenvalues not converged
     c_bands:  1 eigenvalues not converged
     ethr =  5.15E-06,  avg # of iterations =  9.5

[...]

     total energy              =     -23.90991938 Ry
     estimated scf accuracy    <          4.6E-11 Ry

     iteration # 30     ecut=    60.00 Ry     beta= 0.70
     Davidson diagonalization with overlap
     ethr =  5.74E-13,  avg # of iterations =  1.9

[...]

     End of self-consistent calculation

[...]

          k =-0.0000 0.4882 0.0000 (  4172 PWs)   bands (ev):

[...]

          k = 0.3382 0.5858 0.0000 (  4152 PWs)   bands (ev):

   -14.3246 -14.3246 -12.3095  -1.7152  -1.7152   8.9015  11.1598  11.1598

     the Fermi energy is    -1.6773 ev

!    total energy              =     -23.90991938 Ry
     estimated scf accuracy    <          2.0E-13 Ry
     smearing contrib. (-TS)   =      -0.00018232 Ry
     internal energy E=F+TS    =     -23.90973706 Ry

     The total energy is F=E-TS. E is the sum of the following terms:
     one-electron contribution =    -157.39669006 Ry
     hartree contribution      =      80.16086580 Ry
     xc contribution           =      -8.30340476 Ry
     ewald contribution        =      61.62949197 Ry

     convergence has been achieved in  30 iterations

     negative rho (up, down):  1.272E-04 0.000E+00

     Forces acting on atoms (cartesian axes, Ry/au):

     atom    1 type  1   force =    -0.00000000   -0.00000000    0.00000000
     atom    2 type  1   force =     0.00000000    0.00000000    0.00000000

     Total force =     0.000000     Total SCF correction =     0.000000

     Computing stress (Cartesian axis) and pressure

     negative rho (up, down):  1.272E-04 0.000E+00
          total   stress  (Ry/bohr**3)                   (kbar)     P=       -0.16
  -0.00000031  -0.00000000   0.00000000           -0.05       -0.00        0.00
  -0.00000000  -0.00000031   0.00000000           -0.00       -0.05        0.00
   0.00000000  -0.00000000  -0.00000264            0.00       -0.00       -0.39

     Writing all to output data dir ../tmp/gr.save/

     General routines

   This run was terminated on:  20:10:39  24Aug2023

   JOB DONE.