     Program PWSCF v.7.0 starts on 25Aug2023 at  0:37:11

     Waiting for input...
     Reading input from standard input

     Current dimensions of program PWSCF are:
     Max number of different atomic species (ntypx) = 10
     Max number of k-points (npk) =  40000
     Max angular momentum in pseudopotentials (lmaxx) =  4
     file C.pbe-n-kjpaw_psl.1.0.0.UPF: wavefunction(s)  2S 2P renormalized

     Using Slab Decomposition

     bravais-lattice index     =            4
     lattice parameter (alat)  =       4.6561  a.u.
     unit-cell volume          =     532.1899 (a.u.)^3
     number of atoms/cell      =            2
     number of atomic types    =            1
     number of electrons       =         8.00
     number of Kohn-Sham states=            8
     kinetic-energy cutoff     =      80.0000  Ry
     charge density cutoff     =     320.0000  Ry
     scf convergence threshold =      1.0E-09
     mixing beta               =       0.7000
     number of iterations used =            8  plain     mixing
     energy convergence thresh.=      1.0E-05
     force convergence thresh. =      1.0E-04
     press convergence thresh. =      5.0E-02
     Exchange-correlation= SLA  PW   PBX  PBC
                           (   1   4   3   4   0   0   0)
     nstep                     =           50

     celldm(1)=   4.656107  celldm(2)=   0.000000  celldm(3)=   6.087896
     celldm(4)=   0.000000  celldm(5)=   0.000000  celldm(6)=   0.000000

     crystal axes: (cart. coord. in units of alat)
               a(1) = (   1.000000   0.000000   0.000000 )
               a(2) = (  -0.500000   0.866025   0.000000 )
               a(3) = (   0.000000   0.000000   6.087896 )

     reciprocal axes: (cart. coord. in units 2 pi/alat)
               b(1) = (  1.000000  0.577350 -0.000000 )
               b(2) = (  0.000000  1.154701  0.000000 )
               b(3) = (  0.000000 -0.000000  0.164260 )

     PseudoPot. # 1 for C  read from file:
     ../pseudo/C.pbe-n-kjpaw_psl.1.0.0.UPF
     MD5 check sum: 5f16ad9a65e90284d1d834d4ab3b0f7d
     Pseudo is Projector augmented-wave + core cor, Zval =  4.0
     Generated using &quot;atomic&quot; code by A. Dal Corso  v.6.3
     Shape of augmentation charge: PSQ
     Using radial grid of 1073 points,  4 beta functions with:
                l(1) =   0
                l(2) =   0
                l(3) =   1
                l(4) =   1
     Q(r) pseudized with 0 coefficients

     atomic species   valence    mass     pseudopotential
        C              4.00    12.01070     C ( 1.00)

     24 Sym. Ops., with inversion, found

   Cartesian axes

     site n.     atom                  positions (alat units)
         1           C   tau(   1) = (   0.0000000   0.5773503   3.0439478  )
         2           C   tau(   2) = (   0.5000000   0.2886751   3.0439478  )

     number of k points=    19  Marzari-Vanderbilt smearing, width (Ry)=  0.0200
                       cart. coord. in units 2pi/alat
        k(    1) = (   0.0000000   0.0000000   0.0000000), wk =   0.0138889
        k(    2) = (   0.0000000   0.0962250   0.0000000), wk =   0.0833333
        k(    3) = (   0.0000000   0.1924501   0.0000000), wk =   0.0833333
        k(    4) = (   0.0000000   0.2886751   0.0000000), wk =   0.0833333
        k(    5) = (   0.0000000   0.3849002   0.0000000), wk =   0.0833333
        k(    6) = (   0.0000000   0.4811252   0.0000000), wk =   0.0833333
        k(    7) = (   0.0000000  -0.5773503   0.0000000), wk =   0.0416667
        k(    8) = (   0.0833333   0.1443376   0.0000000), wk =   0.0833333
        k(    9) = (   0.0833333   0.2405626   0.0000000), wk =   0.1666667
        k(   10) = (   0.0833333   0.3367877   0.0000000), wk =   0.1666667
        k(   11) = (   0.0833333   0.4330127   0.0000000), wk =   0.1666667
        k(   12) = (   0.0833333   0.5292377   0.0000000), wk =   0.1666667
        k(   13) = (   0.1666667   0.2886751   0.0000000), wk =   0.0833333
        k(   14) = (   0.1666667   0.3849002   0.0000000), wk =   0.1666667
        k(   15) = (   0.1666667   0.4811252   0.0000000), wk =   0.1666667
        k(   16) = (   0.1666667   0.5773503   0.0000000), wk =   0.0833333
        k(   17) = (   0.2500000   0.4330127   0.0000000), wk =   0.0833333
        k(   18) = (   0.2500000   0.5292377   0.0000000), wk =   0.1666667
        k(   19) = (   0.3333333   0.5773503   0.0000000), wk =   0.0277778

     Check: negative core charge=   -0.000005

     Initial potential from superposition of free atoms

     starting charge       7.9999, renormalised to       8.0000

     negative rho (up, down):  2.427E-05 0.000E+00
     Starting wfcs are    8 randomized atomic wfcs

     Self-consistent Calculation

     iteration #  1     ecut=    80.00 Ry     beta= 0.70
     Davidson diagonalization with overlap
     ethr =  1.00E-02,  avg # of iterations =  6.0

     negative rho (up, down):  8.267E-05 0.000E+00

     total energy              =     -36.86092423 Ry
     estimated scf accuracy    <       0.19295471 Ry

[...]

     End of self-consistent calculation

          k = 0.0000 0.0000 0.0000 (  6489 PWs)   bands (ev):

   -21.2578  -9.3489  -4.7621  -4.7621   1.4169   2.2383   2.4981   4.4704

[...]

     the Fermi energy is    -1.6700 ev

!    total energy              =     -36.88768740 Ry

     total all-electron energy =      -152.415882 Ry
     estimated scf accuracy    <          5.7E-10 Ry
     smearing contrib. (-TS)   =      -0.00018232 Ry
     internal energy E=F+TS    =     -36.88750508 Ry

     The total energy is F=E-TS. E is the sum of the following terms:
     one-electron contribution =    -157.05471902 Ry
     hartree contribution      =      80.14969176 Ry
     xc contribution           =      -9.27790949 Ry
     ewald contribution        =      61.62964712 Ry
     one-center paw contrib.   =     -12.33421545 Ry

     convergence has been achieved in   6 iterations

[...]

     Forces acting on atoms (cartesian axes, Ry/au):

     atom    1 type  1   force =     0.00000000    0.00000000    0.00000000
     atom    2 type  1   force =     0.00000000   -0.00000000    0.00000000

     Total force =     0.000000     Total SCF correction =     0.000000

     Computing stress (Cartesian axis) and pressure

     negative rho (up, down):  1.303E-04 0.000E+00
          total   stress  (Ry/bohr**3)                   (kbar)     P=        2.59
   0.00002631   0.00000000   0.00000000            3.87        0.00        0.00
   0.00000000   0.00002631  -0.00000000            0.00        3.87       -0.00
   0.00000000   0.00000000   0.00000010            0.00        0.00        0.02

     BFGS Geometry Optimization
     Energy error            =      0.0E+00 Ry
     Gradient error          =      8.0E-26 Ry/Bohr
     Cell gradient error     =      3.9E+00 kbar

     number of scf cycles    =   1
     number of bfgs steps    =   0

     enthalpy           new  =     -36.8876874047 Ry

     new trust radius        =       0.0030350926 bohr
     new conv_thr            =       0.0000000010 Ry

     new unit-cell volume =    532.89029 a.u.^3 (    78.96619 Ang^3 )
     density =      0.50513 g/cm^3

CELL_PARAMETERS (alat=  4.65610675)
   1.000657822   0.000000000   0.000000000
  -0.500328911   0.866595095   0.000000000
   0.000000000   0.000000000   6.087895618

ATOMIC_POSITIONS (crystal)
C             0.3333333330        0.6666666660        0.5000000000
C             0.6666666660        0.3333333330        0.5000000000

     Writing config-only to output data dir ../tmp/gr.save/
     NEW-OLD atomic charge density approx. for the potential

[...]

     negative rho (up, down):  1.290E-04 0.000E+00
     extrapolated charge    8.01051, renormalised to    8.00000

[...]

          k =-0.0000 0.0962 0.0000 (  6493 PWs)   bands (ev):

[...]

     Energy error            =      1.4E-05 Ry
     Gradient error          =      8.0E-26 Ry/Bohr
     Cell gradient error     =      2.0E+00 kbar

     number of scf cycles    =   2
     number of bfgs steps    =   1

     enthalpy           old  =     -36.8876874047 Ry
     enthalpy           new  =     -36.8877014372 Ry

     CASE: enthalpy          _new < enthalpy          _old

     new trust radius        =       0.0033386018 bohr
     new conv_thr            =            1.0E-11 Ry

     new unit-cell volume =    533.66126 a.u.^3 (    79.08044 Ang^3 )
     density =      0.50440 g/cm^3

[...]

ATOMIC_POSITIONS (crystal)
C             0.3333333330        0.6666666660        0.5000000000
C             0.6666666660        0.3333333330        0.5000000000

     Writing config-only to output data dir ../tmp/gr.save/
     NEW-OLD atomic charge density approx. for the potential

[...]

     negative rho (up, down):  1.273E-04 0.000E+00
     extrapolated charge    8.01156, renormalised to    8.00000

[...]

     iteration #  1     ecut=    80.00 Ry     beta= 0.70
     Davidson diagonalization with overlap
     c_bands:  1 eigenvalues not converged
     ethr =  1.00E-06,  avg # of iterations =  7.5

[...]

     Energy error            =      5.3E-06 Ry
     Gradient error          =      7.9E-26 Ry/Bohr
     Cell gradient error     =      1.5E-02 kbar

     bfgs converged in   3 scf cycles and   2 bfgs steps
     (criteria: energy <  1.0E-05 Ry, force <  1.0E-04Ry/Bohr, cell <  5.0E-02kbar)

     End of BFGS Geometry Optimization

     Final enthalpy           =     -36.8877067747 Ry

     File ../tmp/gr.bfgs deleted, as requested
Begin final coordinates
     new unit-cell volume =    533.66126 a.u.^3 (    79.08044 Ang^3 )
     density =      0.50440 g/cm^3

CELL_PARAMETERS (alat=  4.65610675)
   1.001381427  -0.000000000   0.000000000
  -0.500690713   0.867221755   0.000000000
   0.000000000   0.000000000   6.087895618

ATOMIC_POSITIONS (crystal)
C             0.3333333330        0.6666666660        0.5000000000
C             0.6666666660        0.3333333330        0.5000000000
End final coordinates

     Writing config-only to output data dir ../tmp/gr.save/

     Final scf calculation at the relaxed structure.
     The G-vectors are recalculated for the final unit cell
     Results may differ from those at the preceding step.

     Using Slab Decomposition

     bravais-lattice index     =            4
     lattice parameter (alat)  =       4.6561  a.u.
     unit-cell volume          =     533.6613 (a.u.)^3
     number of atoms/cell      =            2
     number of atomic types    =            1
     number of electrons       =         8.00
     number of Kohn-Sham states=            8
     kinetic-energy cutoff     =      80.0000  Ry
     charge density cutoff     =     320.0000  Ry
     scf convergence threshold =      1.0E-11
     mixing beta               =       0.7000
     number of iterations used =            8  plain     mixing
     press convergence thresh. =      5.0E-02
     Exchange-correlation= SLA  PW   PBX  PBC
                           (   1   4   3   4   0   0   0)

     celldm(1)=   4.656107  celldm(2)=   0.000000  celldm(3)=   6.087896
     celldm(4)=   0.000000  celldm(5)=   0.000000  celldm(6)=   0.000000

     crystal axes: (cart. coord. in units of alat)
               a(1) = (   1.001381  -0.000000   0.000000 )
               a(2) = (  -0.500691   0.867222   0.000000 )
               a(3) = (   0.000000   0.000000   6.087896 )

     reciprocal axes: (cart. coord. in units 2 pi/alat)
               b(1) = (  0.998620  0.576554 -0.000000 )
               b(2) = (  0.000000  1.153108 -0.000000 )
               b(3) = ( -0.000000 -0.000000  0.164260 )

     PseudoPot. # 1 for C  read from file:
     ../pseudo/C.pbe-n-kjpaw_psl.1.0.0.UPF
     MD5 check sum: 5f16ad9a65e90284d1d834d4ab3b0f7d
     Pseudo is Projector augmented-wave + core cor, Zval =  4.0
     Generated using &quot;atomic&quot; code by A. Dal Corso  v.6.3
     Shape of augmentation charge: PSQ
     Using radial grid of 1073 points,  4 beta functions with:
                l(1) =   0
                l(2) =   0
                l(3) =   1
                l(4) =   1
     Q(r) pseudized with 0 coefficients

     atomic species   valence    mass     pseudopotential
        C              4.00    12.01070     C ( 1.00)

     24 Sym. Ops., with inversion, found

   Cartesian axes

     site n.     atom                  positions (alat units)
         1           C   tau(   1) = (   0.0000000   0.5781478   3.0439478  )
         2           C   tau(   2) = (   0.5006907   0.2890739   3.0439478  )

     number of k points=    19  Marzari-Vanderbilt smearing, width (Ry)=  0.0200
                       cart. coord. in units 2pi/alat
        k(    1) = (   0.0000000   0.0000000   0.0000000), wk =   0.0138889
        k(    2) = (   0.0000000   0.0960923   0.0000000), wk =   0.0833333
        k(    3) = (   0.0000000   0.1921846   0.0000000), wk =   0.0833333
        k(    4) = (   0.0000000   0.2882769   0.0000000), wk =   0.0833333
        k(    5) = (   0.0000000   0.3843692   0.0000000), wk =   0.0833333
        k(    6) = (   0.0000000   0.4804615   0.0000000), wk =   0.0833333
        k(    7) = (  -0.0000000  -0.5765538   0.0000000), wk =   0.0416667
        k(    8) = (   0.0832184   0.1441385   0.0000000), wk =   0.0833333
        k(    9) = (   0.0832184   0.2402308   0.0000000), wk =   0.1666667
        k(   10) = (   0.0832184   0.3363231   0.0000000), wk =   0.1666667
        k(   11) = (   0.0832184   0.4324154   0.0000000), wk =   0.1666667
        k(   12) = (   0.0832184   0.5285077   0.0000000), wk =   0.1666667
        k(   13) = (   0.1664367   0.2882769   0.0000000), wk =   0.0833333
        k(   14) = (   0.1664367   0.3843692   0.0000000), wk =   0.1666667
        k(   15) = (   0.1664367   0.4804615   0.0000000), wk =   0.1666667
        k(   16) = (   0.1664367   0.5765538   0.0000000), wk =   0.0833333
        k(   17) = (   0.2496551   0.4324154   0.0000000), wk =   0.0833333
        k(   18) = (   0.2496551   0.5285077   0.0000000), wk =   0.1666667
        k(   19) = (   0.3328735   0.5765538   0.0000000), wk =   0.0277778

     Check: negative core charge=   -0.000005

     Initial potential from superposition of free atoms

     starting charge       7.9999, renormalised to       8.0000

     negative rho (up, down):  2.572E-05 0.000E+00
     Starting wfcs are    8 randomized atomic wfcs

     Self-consistent Calculation

     iteration #  1     ecut=    80.00 Ry     beta= 0.70
     Davidson diagonalization with overlap
     c_bands:  1 eigenvalues not converged
     c_bands:  1 eigenvalues not converged
     c_bands:  1 eigenvalues not converged
     c_bands:  1 eigenvalues not converged
     c_bands:  1 eigenvalues not converged
     c_bands:  1 eigenvalues not converged
     c_bands:  1 eigenvalues not converged
     c_bands:  1 eigenvalues not converged
     c_bands:  1 eigenvalues not converged
     c_bands:  1 eigenvalues not converged
     c_bands:  1 eigenvalues not converged
     c_bands:  1 eigenvalues not converged
     ethr =  1.00E-06,  avg # of iterations = 19.3

[...]

     total energy              =     -36.88770809 Ry
     estimated scf accuracy    <          1.6E-11 Ry

     iteration #  8     ecut=    80.00 Ry     beta= 0.70
     Davidson diagonalization with overlap
     ethr =  2.03E-13,  avg # of iterations =  3.8

[...]

     End of self-consistent calculation

[...]

          k =-0.0000-0.5766 0.0000 (  6414 PWs)   bands (ev):

[...]

          k = 0.3329 0.5766 0.0000 (  6426 PWs)   bands (ev):

   -14.3304 -14.3304 -12.2862  -1.7240  -1.7240   8.8883  11.1323  11.1323

     the Fermi energy is    -1.6861 ev

!    total energy              =     -36.88770809 Ry

     total all-electron energy =      -152.415903 Ry
     estimated scf accuracy    <          1.6E-12 Ry
     smearing contrib. (-TS)   =      -0.00018232 Ry
     internal energy E=F+TS    =     -36.88752576 Ry

     The total energy is F=E-TS. E is the sum of the following terms:
     one-electron contribution =    -156.61041342 Ry
     hartree contribution      =      79.92329380 Ry
     xc contribution           =      -9.27169330 Ry
     ewald contribution        =      61.40523146 Ry
     one-center paw contrib.   =     -12.33394430 Ry

     convergence has been achieved in   8 iterations

     negative rho (up, down):  1.315E-04 0.000E+00

     Forces acting on atoms (cartesian axes, Ry/au):

     atom    1 type  1   force =     0.00000000    0.00000000    0.00000000
     atom    2 type  1   force =     0.00000000    0.00000000    0.00000000

     Total force =     0.000000     Total SCF correction =     0.000000

     Computing stress (Cartesian axis) and pressure

     negative rho (up, down):  1.315E-04 0.000E+00
          total   stress  (Ry/bohr**3)                   (kbar)     P=        0.01
   0.00000012  -0.00000000  -0.00000000            0.02       -0.00       -0.00
  -0.00000000   0.00000012   0.00000000           -0.00        0.02        0.00
   0.00000000   0.00000000   0.00000003            0.00        0.00        0.00

     Writing all to output data dir ../tmp/gr.save/

     General routines

   This run was terminated on:   0:38:24  25Aug2023

   JOB DONE.