     Program PWSCF v.7.0 starts on 25Aug2023 at  0:34:19

     Waiting for input...
     Reading input from standard input

     Current dimensions of program PWSCF are:
     Max number of different atomic species (ntypx) = 10
     Max number of k-points (npk) =  40000
     Max angular momentum in pseudopotentials (lmaxx) =  4

     Using Slab Decomposition

     bravais-lattice index     =            4
     lattice parameter (alat)  =       4.6561  a.u.
     unit-cell volume          =     532.1899 (a.u.)^3
     number of atoms/cell      =            2
     number of atomic types    =            1
     number of electrons       =         8.00
     number of Kohn-Sham states=            8
     kinetic-energy cutoff     =      80.0000  Ry
     charge density cutoff     =     320.0000  Ry
     scf convergence threshold =      1.0E-09
     mixing beta               =       0.7000
     number of iterations used =            8  plain     mixing
     energy convergence thresh.=      1.0E-05
     force convergence thresh. =      1.0E-04
     press convergence thresh. =      5.0E-02
     Exchange-correlation= LDA
                           (   1   1   0   0   0   0   0)
     nstep                     =           50

     celldm(1)=   4.656107  celldm(2)=   0.000000  celldm(3)=   6.087896
     celldm(4)=   0.000000  celldm(5)=   0.000000  celldm(6)=   0.000000

     crystal axes: (cart. coord. in units of alat)
               a(1) = (   1.000000   0.000000   0.000000 )
               a(2) = (  -0.500000   0.866025   0.000000 )
               a(3) = (   0.000000   0.000000   6.087896 )

     reciprocal axes: (cart. coord. in units 2 pi/alat)
               b(1) = (  1.000000  0.577350 -0.000000 )
               b(2) = (  0.000000  1.154701  0.000000 )
               b(3) = (  0.000000 -0.000000  0.164260 )

     PseudoPot. # 1 for C  read from file:
     ../pseudo/C.pz-n-rrkjus_psl.0.1.UPF
     MD5 check sum: a3cecbabebb5b3a1aff122f23eb09bb0
     Pseudo is Ultrasoft + core correction, Zval =  4.0
     Generated using "atomic" code by A. Dal Corso  v.5.0.2 svn rev. 9415
     Using radial grid of 1073 points,  4 beta functions with:
                l(1) =   0
                l(2) =   0
                l(3) =   1
                l(4) =   1
     Q(r) pseudized with 0 coefficients

     atomic species   valence    mass     pseudopotential
        C              4.00    12.01070     C ( 1.00)

     24 Sym. Ops., with inversion, found

   Cartesian axes

     site n.     atom                  positions (alat units)
         1           C   tau(   1) = (   0.0000000   0.5773503   3.0439478  )
         2           C   tau(   2) = (   0.5000000   0.2886751   3.0439478  )

     number of k points=    19  Marzari-Vanderbilt smearing, width (Ry)=  0.0200
                       cart. coord. in units 2pi/alat
        k(    1) = (   0.0000000   0.0000000   0.0000000), wk =   0.0138889
        k(    2) = (   0.0000000   0.0962250   0.0000000), wk =   0.0833333
        k(    3) = (   0.0000000   0.1924501   0.0000000), wk =   0.0833333
        k(    4) = (   0.0000000   0.2886751   0.0000000), wk =   0.0833333
        k(    5) = (   0.0000000   0.3849002   0.0000000), wk =   0.0833333
        k(    6) = (   0.0000000   0.4811252   0.0000000), wk =   0.0833333
        k(    7) = (   0.0000000  -0.5773503   0.0000000), wk =   0.0416667
        k(    8) = (   0.0833333   0.1443376   0.0000000), wk =   0.0833333
        k(    9) = (   0.0833333   0.2405626   0.0000000), wk =   0.1666667
        k(   10) = (   0.0833333   0.3367877   0.0000000), wk =   0.1666667
        k(   11) = (   0.0833333   0.4330127   0.0000000), wk =   0.1666667
        k(   12) = (   0.0833333   0.5292377   0.0000000), wk =   0.1666667
        k(   13) = (   0.1666667   0.2886751   0.0000000), wk =   0.0833333
        k(   14) = (   0.1666667   0.3849002   0.0000000), wk =   0.1666667
        k(   15) = (   0.1666667   0.4811252   0.0000000), wk =   0.1666667
        k(   16) = (   0.1666667   0.5773503   0.0000000), wk =   0.0833333
        k(   17) = (   0.2500000   0.4330127   0.0000000), wk =   0.0833333
        k(   18) = (   0.2500000   0.5292377   0.0000000), wk =   0.1666667
        k(   19) = (   0.3333333   0.5773503   0.0000000), wk =   0.0277778

     Check: negative core charge=   -0.000001

     Initial potential from superposition of free atoms

     starting charge       7.9999, renormalised to       8.0000

     negative rho (up, down):  5.357E-05 0.000E+00
     Starting wfcs are    8 randomized atomic wfcs

     Self-consistent Calculation

     iteration #  1     ecut=    80.00 Ry     beta= 0.70
     Davidson diagonalization with overlap
     ethr =  1.00E-02,  avg # of iterations =  8.5

     total energy              =     -23.89369544 Ry
     estimated scf accuracy    <       0.13643661 Ry

[...]

     negative rho (up, down):  2.543E-07 0.000E+00

[...]

     iteration #  3     ecut=    80.00 Ry     beta= 0.70
     Davidson diagonalization with overlap
     c_bands:  1 eigenvalues not converged
     c_bands:  1 eigenvalues not converged
     ethr =  1.02E-04,  avg # of iterations = 16.2

[...]

     End of self-consistent calculation

          k = 0.0000 0.0000 0.0000 (  6489 PWs)   bands (ev):

   -21.3324  -9.6698  -5.0500  -5.0500   1.3577   2.3714   2.6748   4.5822

[...]

     the Fermi energy is    -1.9756 ev

!    total energy              =     -23.93037111 Ry
     estimated scf accuracy    <          8.0E-10 Ry
     smearing contrib. (-TS)   =      -0.00018232 Ry
     internal energy E=F+TS    =     -23.93018879 Ry

     The total energy is F=E-TS. E is the sum of the following terms:
     one-electron contribution =    -157.40510658 Ry
     hartree contribution      =      80.10052874 Ry
     xc contribution           =      -8.25525806 Ry
     ewald contribution        =      61.62964712 Ry

     convergence has been achieved in  11 iterations

[...]

     Forces acting on atoms (cartesian axes, Ry/au):

     atom    1 type  1   force =     0.00000000    0.00000000    0.00000000
     atom    2 type  1   force =     0.00000000    0.00000000    0.00000000

     Total force =     0.000000     Total SCF correction =     0.000000

     Computing stress (Cartesian axis) and pressure

     negative rho (up, down):  2.657E-05 0.000E+00
          total   stress  (Ry/bohr**3)                   (kbar)     P=      -13.89
  -0.00014138   0.00000000   0.00000000          -20.80        0.00        0.00
   0.00000000  -0.00014138  -0.00000000            0.00      -20.80       -0.00
  -0.00000000   0.00000000  -0.00000049           -0.00        0.00       -0.07

     BFGS Geometry Optimization
     Energy error            =      0.0E+00 Ry
     Gradient error          =      0.0E+00 Ry/Bohr
     Cell gradient error     =      2.1E+01 kbar

     number of scf cycles    =   1
     number of bfgs steps    =   0

     enthalpy           new  =     -23.9303711144 Ry

     new trust radius        =       0.0163076528 bohr
     new conv_thr            =       0.0000000010 Ry

     new unit-cell volume =    528.43448 a.u.^3 (    78.30591 Ang^3 )
     density =      0.50939 g/cm^3

CELL_PARAMETERS (alat=  4.65610675)
   0.996465499   0.000000000   0.000000000
  -0.498232749   0.862964436   0.000000000
   0.000000000   0.000000000   6.087895618

ATOMIC_POSITIONS (crystal)
C             0.3333333330        0.6666666660        0.5000000000
C             0.6666666660        0.3333333330        0.5000000000

     Writing config-only to output data dir ../tmp/gr.save/
     NEW-OLD atomic charge density approx. for the potential

[...]

     negative rho (up, down):  2.813E-05 0.000E+00
     extrapolated charge    7.94315, renormalised to    8.00000

[...]

          k =-0.0000 0.0966 0.0000 (  6493 PWs)   bands (ev):

[...]

     Energy error            =      4.1E-04 Ry
     Gradient error          =      1.6E-25 Ry/Bohr
     Cell gradient error     =      1.1E+01 kbar

[...]

     enthalpy           old  =     -23.9303711144 Ry
     enthalpy           new  =     -23.9307784754 Ry

     CASE: enthalpy          _new < enthalpy          _old

[...]

     number of scf cycles    =   3
     number of bfgs steps    =   2

     enthalpy           old  =     -23.9307784754 Ry
     enthalpy           new  =     -23.9309305314 Ry

     CASE: enthalpy          _new < enthalpy          _old

     small trust_radius: resetting bfgs history

     new trust radius        =       0.0000267211 bohr
     new conv_thr            =            1.0E-11 Ry

     new unit-cell volume =    524.32501 a.u.^3 (    77.69695 Ang^3 )
     density =      0.51339 g/cm^3

[...]

ATOMIC_POSITIONS (crystal)
C             0.3333333330        0.6666666660        0.5000000000
C             0.6666666660        0.3333333330        0.5000000000

     Writing config-only to output data dir ../tmp/gr.save/
     NEW-OLD atomic charge density approx. for the potential

     negative rho (up, down):  2.995E-05 0.000E+00
     extrapolated charge    8.00009, renormalised to    8.00000

[...]

     Threshold (ethr) on eigenvalues was too large:
     Diagonalizing with lowered threshold

     Davidson diagonalization with overlap
     ethr =  1.61E-11,  avg # of iterations =  3.9

[...]

     Energy error            =      1.1E-09 Ry
     Gradient error          =      2.8E-25 Ry/Bohr
     Cell gradient error     =      1.8E-02 kbar

     bfgs converged in   4 scf cycles and   3 bfgs steps
     (criteria: energy <  1.0E-05 Ry, force <  1.0E-04Ry/Bohr, cell <  5.0E-02kbar)

     End of BFGS Geometry Optimization

     Final enthalpy           =     -23.9309305324 Ry

     File ../tmp/gr.bfgs deleted, as requested
Begin final coordinates
     new unit-cell volume =    524.32501 a.u.^3 (    77.69695 Ang^3 )
     density =      0.51339 g/cm^3

CELL_PARAMETERS (alat=  4.65610675)
   0.992583339   0.000000000   0.000000000
  -0.496291669   0.859602387   0.000000000
   0.000000000   0.000000000   6.087895618

ATOMIC_POSITIONS (crystal)
C             0.3333333330        0.6666666660        0.5000000000
C             0.6666666660        0.3333333330        0.5000000000
End final coordinates

     Writing config-only to output data dir ../tmp/gr.save/

     Final scf calculation at the relaxed structure.
     The G-vectors are recalculated for the final unit cell
     Results may differ from those at the preceding step.

     Using Slab Decomposition

     bravais-lattice index     =            4
     lattice parameter (alat)  =       4.6561  a.u.
     unit-cell volume          =     524.3250 (a.u.)^3
     number of atoms/cell      =            2
     number of atomic types    =            1
     number of electrons       =         8.00
     number of Kohn-Sham states=            8
     kinetic-energy cutoff     =      80.0000  Ry
     charge density cutoff     =     320.0000  Ry
     scf convergence threshold =      1.0E-11
     mixing beta               =       0.7000
     number of iterations used =            8  plain     mixing
     press convergence thresh. =      5.0E-02
     Exchange-correlation= LDA
                           (   1   1   0   0   0   0   0)

     celldm(1)=   4.656107  celldm(2)=   0.000000  celldm(3)=   6.087896
     celldm(4)=   0.000000  celldm(5)=   0.000000  celldm(6)=   0.000000

     crystal axes: (cart. coord. in units of alat)
               a(1) = (   0.992583   0.000000   0.000000 )
               a(2) = (  -0.496292   0.859602   0.000000 )
               a(3) = (   0.000000   0.000000   6.087896 )

     reciprocal axes: (cart. coord. in units 2 pi/alat)
               b(1) = (  1.007472  0.581664 -0.000000 )
               b(2) = ( -0.000000  1.163329  0.000000 )
               b(3) = (  0.000000 -0.000000  0.164260 )

     PseudoPot. # 1 for C  read from file:
     ../pseudo/C.pz-n-rrkjus_psl.0.1.UPF
     MD5 check sum: a3cecbabebb5b3a1aff122f23eb09bb0
     Pseudo is Ultrasoft + core correction, Zval =  4.0
     Generated using "atomic" code by A. Dal Corso  v.5.0.2 svn rev. 9415
     Using radial grid of 1073 points,  4 beta functions with:
                l(1) =   0
                l(2) =   0
                l(3) =   1
                l(4) =   1
     Q(r) pseudized with 0 coefficients

     atomic species   valence    mass     pseudopotential
        C              4.00    12.01070     C ( 1.00)

     24 Sym. Ops., with inversion, found

   Cartesian axes

     site n.     atom                  positions (alat units)
         1           C   tau(   1) = (   0.0000000   0.5730683   3.0439478  )
         2           C   tau(   2) = (   0.4962917   0.2865341   3.0439478  )

     number of k points=    19  Marzari-Vanderbilt smearing, width (Ry)=  0.0200
                       cart. coord. in units 2pi/alat
        k(    1) = (   0.0000000   0.0000000   0.0000000), wk =   0.0138889
        k(    2) = (  -0.0000000   0.0969440   0.0000000), wk =   0.0833333
        k(    3) = (  -0.0000000   0.1938881   0.0000000), wk =   0.0833333
        k(    4) = (  -0.0000000   0.2908321   0.0000000), wk =   0.0833333
        k(    5) = (  -0.0000000   0.3877762   0.0000000), wk =   0.0833333
        k(    6) = (  -0.0000000   0.4847202   0.0000000), wk =   0.0833333
        k(    7) = (   0.0000000  -0.5816643   0.0000000), wk =   0.0416667
        k(    8) = (   0.0839560   0.1454161   0.0000000), wk =   0.0833333
        k(    9) = (   0.0839560   0.2423601   0.0000000), wk =   0.1666667
        k(   10) = (   0.0839560   0.3393042   0.0000000), wk =   0.1666667
        k(   11) = (   0.0839560   0.4362482   0.0000000), wk =   0.1666667
        k(   12) = (   0.0839560   0.5331923   0.0000000), wk =   0.1666667
        k(   13) = (   0.1679120   0.2908321   0.0000000), wk =   0.0833333
        k(   14) = (   0.1679120   0.3877762   0.0000000), wk =   0.1666667
        k(   15) = (   0.1679120   0.4847202   0.0000000), wk =   0.1666667
        k(   16) = (   0.1679120   0.5816643   0.0000000), wk =   0.0833333
        k(   17) = (   0.2518680   0.4362482   0.0000000), wk =   0.0833333
        k(   18) = (   0.2518680   0.5331923   0.0000000), wk =   0.1666667
        k(   19) = (   0.3358240   0.5816643   0.0000000), wk =   0.0277778

     Check: negative core charge=   -0.000001

     Initial potential from superposition of free atoms

     starting charge       7.9999, renormalised to       8.0000

     negative rho (up, down):  5.355E-05 0.000E+00
     Starting wfcs are    8 randomized atomic wfcs

     Self-consistent Calculation

[...]

     iteration #  6     ecut=    80.00 Ry     beta= 0.70
     Davidson diagonalization with overlap
     c_bands:  1 eigenvalues not converged
     ethr =  7.56E-07,  avg # of iterations =  8.1

[...]

     total energy              =     -23.93092878 Ry
     estimated scf accuracy    <          3.2E-11 Ry

     iteration # 19     ecut=    80.00 Ry     beta= 0.70
     Davidson diagonalization with overlap
     ethr =  3.36E-13,  avg # of iterations =  1.8

[...]

     End of self-consistent calculation

[...]

          k =-0.0000 0.4847 0.0000 (  6314 PWs)   bands (ev):

[...]

          k = 0.3358 0.5817 0.0000 (  6324 PWs)   bands (ev):

   -14.3885 -14.3885 -12.7009  -1.9267  -1.9267   8.4867  11.1031  11.1032

     the Fermi energy is    -1.8888 ev

!    total energy              =     -23.93092878 Ry
     estimated scf accuracy    <          3.2E-12 Ry
     smearing contrib. (-TS)   =      -0.00018232 Ry
     internal energy E=F+TS    =     -23.93074645 Ry

     The total energy is F=E-TS. E is the sum of the following terms:
     one-electron contribution =    -159.82688863 Ry
     hartree contribution      =      81.33372109 Ry
     xc contribution           =      -8.28945002 Ry
     ewald contribution        =      62.85187110 Ry

     convergence has been achieved in  19 iterations

     negative rho (up, down):  2.770E-05 0.000E+00

     Forces acting on atoms (cartesian axes, Ry/au):

     atom    1 type  1   force =    -0.00000000    0.00000000    0.00000000
     atom    2 type  1   force =     0.00000000   -0.00000000    0.00000000

     Total force =     0.000000     Total SCF correction =     0.000000

     Computing stress (Cartesian axis) and pressure

     negative rho (up, down):  2.770E-05 0.000E+00
          total   stress  (Ry/bohr**3)                   (kbar)     P=       -0.01
   0.00000012   0.00000000   0.00000000            0.02        0.00        0.00
  -0.00000000   0.00000012  -0.00000000           -0.00        0.02       -0.00
   0.00000000  -0.00000000  -0.00000038            0.00       -0.00       -0.06

     Writing all to output data dir ../tmp/gr.save/

     General routines

   This run was terminated on:   0:37:11  25Aug2023

   JOB DONE.