     Program PWSCF v.7.0 starts on 25Aug2023 at  0:42:14

     Waiting for input...
     Reading input from standard input

     Current dimensions of program PWSCF are:
     Max number of different atomic species (ntypx) = 10
     Max number of k-points (npk) =  40000
     Max angular momentum in pseudopotentials (lmaxx) =  4

     Using Slab Decomposition

     bravais-lattice index     =            4
     lattice parameter (alat)  =       4.6561  a.u.
     unit-cell volume          =     532.1899 (a.u.)^3
     number of atoms/cell      =            2
     number of atomic types    =            1
     number of electrons       =         8.00
     number of Kohn-Sham states=            8
     kinetic-energy cutoff     =      80.0000  Ry
     charge density cutoff     =     320.0000  Ry
     scf convergence threshold =      1.0E-09
     mixing beta               =       0.7000
     number of iterations used =            8  plain     mixing
     energy convergence thresh.=      1.0E-05
     force convergence thresh. =      1.0E-04
     press convergence thresh. =      5.0E-02
     Exchange-correlation= SLA-PZ-NOGX-NOGC
                           (   1   1   0   0   0   0   0)
     nstep                     =           50

     celldm(1)=   4.656107  celldm(2)=   0.000000  celldm(3)=   6.087896
     celldm(4)=   0.000000  celldm(5)=   0.000000  celldm(6)=   0.000000

     crystal axes: (cart. coord. in units of alat)
               a(1) = (   1.000000   0.000000   0.000000 )
               a(2) = (  -0.500000   0.866025   0.000000 )
               a(3) = (   0.000000   0.000000   6.087896 )

     reciprocal axes: (cart. coord. in units 2 pi/alat)
               b(1) = (  1.000000  0.577350 -0.000000 )
               b(2) = (  0.000000  1.154701  0.000000 )
               b(3) = (  0.000000 -0.000000  0.164260 )

     PseudoPot. # 1 for C  read from file:
     ../pseudo/C.pz-hgh.UPF
     MD5 check sum: 6f4c38613180f901a5a79202410654b3
     Pseudo is Norm-conserving, Zval =  4.0
     Generated in analytical, separable form
     Using radial grid of 1073 points,  1 beta functions with:
                l(1) =   0

     atomic species   valence    mass     pseudopotential
        C              4.00    12.01070     C ( 1.00)

     24 Sym. Ops., with inversion, found

   Cartesian axes

     site n.     atom                  positions (alat units)
         1           C   tau(   1) = (   0.0000000   0.5773503   3.0439478  )
         2           C   tau(   2) = (   0.5000000   0.2886751   3.0439478  )

     number of k points=    19  Marzari-Vanderbilt smearing, width (Ry)=  0.0200
                       cart. coord. in units 2pi/alat
        k(    1) = (   0.0000000   0.0000000   0.0000000), wk =   0.0138889
        k(    2) = (   0.0000000   0.0962250   0.0000000), wk =   0.0833333
        k(    3) = (   0.0000000   0.1924501   0.0000000), wk =   0.0833333
        k(    4) = (   0.0000000   0.2886751   0.0000000), wk =   0.0833333
        k(    5) = (   0.0000000   0.3849002   0.0000000), wk =   0.0833333
        k(    6) = (   0.0000000   0.4811252   0.0000000), wk =   0.0833333
        k(    7) = (   0.0000000  -0.5773503   0.0000000), wk =   0.0416667
        k(    8) = (   0.0833333   0.1443376   0.0000000), wk =   0.0833333
        k(    9) = (   0.0833333   0.2405626   0.0000000), wk =   0.1666667
        k(   10) = (   0.0833333   0.3367877   0.0000000), wk =   0.1666667
        k(   11) = (   0.0833333   0.4330127   0.0000000), wk =   0.1666667
        k(   12) = (   0.0833333   0.5292377   0.0000000), wk =   0.1666667
        k(   13) = (   0.1666667   0.2886751   0.0000000), wk =   0.0833333
        k(   14) = (   0.1666667   0.3849002   0.0000000), wk =   0.1666667
        k(   15) = (   0.1666667   0.4811252   0.0000000), wk =   0.1666667
        k(   16) = (   0.1666667   0.5773503   0.0000000), wk =   0.0833333
        k(   17) = (   0.2500000   0.4330127   0.0000000), wk =   0.0833333
        k(   18) = (   0.2500000   0.5292377   0.0000000), wk =   0.1666667
        k(   19) = (   0.3333333   0.5773503   0.0000000), wk =   0.0277778

     Initial potential from superposition of free atoms

     starting charge       7.9999, renormalised to       8.0000

     negative rho (up, down):  1.799E-06 0.000E+00
     Starting wfcs are    8 randomized atomic wfcs

     Self-consistent Calculation

     iteration #  1     ecut=    80.00 Ry     beta= 0.70
     Davidson diagonalization with overlap
     ethr =  1.00E-02,  avg # of iterations =  6.2

     total energy              =     -22.80200912 Ry
     estimated scf accuracy    <       0.20899925 Ry

[...]

     End of self-consistent calculation

          k = 0.0000 0.0000 0.0000 (  6489 PWs)   bands (ev):

   -21.3477  -9.6598  -5.0627  -5.0627   1.3842   2.4334   2.9110   4.7543

[...]

     the Fermi energy is    -1.9588 ev

!    total energy              =     -22.83510410 Ry
     estimated scf accuracy    <          3.4E-10 Ry
     smearing contrib. (-TS)   =      -0.00018232 Ry
     internal energy E=F+TS    =     -22.83492178 Ry

     The total energy is F=E-TS. E is the sum of the following terms:
     one-electron contribution =    -157.60656787 Ry
     hartree contribution      =      80.07827298 Ry
     xc contribution           =      -6.93627400 Ry
     ewald contribution        =      61.62964712 Ry

     convergence has been achieved in   6 iterations

     Forces acting on atoms (cartesian axes, Ry/au):

     atom    1 type  1   force =     0.00000000    0.00000000    0.00000000
     atom    2 type  1   force =    -0.00000000   -0.00000000    0.00000000

     Total force =     0.000000     Total SCF correction =     0.000000

     Computing stress (Cartesian axis) and pressure

          total   stress  (Ry/bohr**3)                   (kbar)     P=      -30.47
  -0.00025478   0.00000000   0.00000000          -37.48        0.00        0.00
   0.00000000  -0.00025478  -0.00000000            0.00      -37.48       -0.00
   0.00000000  -0.00000000  -0.00011176            0.00       -0.00      -16.44

     BFGS Geometry Optimization
     Energy error            =      0.0E+00 Ry
     Gradient error          =      6.9E-26 Ry/Bohr
     Cell gradient error     =      3.7E+01 kbar

     number of scf cycles    =   1
     number of bfgs steps    =   0

     enthalpy           new  =     -22.8351041024 Ry

     new trust radius        =       0.0293875430 bohr
     new conv_thr            =       0.0000000010 Ry

     new unit-cell volume =    525.43199 a.u.^3 (    77.86099 Ang^3 )
     density =      0.51230 g/cm^3

CELL_PARAMETERS (alat=  4.65610675)
   0.993630579   0.000000000   0.000000000
  -0.496815289   0.860509323   0.000000000
   0.000000000   0.000000000   6.087895618

ATOMIC_POSITIONS (crystal)
C             0.3333333330        0.6666666660        0.5000000000
C             0.6666666660        0.3333333330        0.5000000000

     Writing config-only to output data dir ../tmp/gr.save/
     NEW-OLD atomic charge density approx. for the potential
     extrapolated charge    7.89711, renormalised to    8.00000

[...]

     iteration #  1     ecut=    80.00 Ry     beta= 0.70
     Davidson diagonalization with overlap
     c_bands:  1 eigenvalues not converged
     c_bands:  1 eigenvalues not converged
     ethr =  1.00E-06,  avg # of iterations = 11.9

[...]

     Energy error            =      1.3E-03 Ry
     Gradient error          =      6.9E-26 Ry/Bohr
     Cell gradient error     =      2.0E+01 kbar

[...]

     enthalpy           old  =     -22.8351041024 Ry
     enthalpy           new  =     -22.8364156049 Ry

     CASE: enthalpy          _new < enthalpy          _old

[...]

     number of scf cycles    =   3
     number of bfgs steps    =   2

     enthalpy           old  =     -22.8364156049 Ry
     enthalpy           new  =     -22.8368729626 Ry

     CASE: enthalpy          _new < enthalpy          _old

     new trust radius        =       0.0015068944 bohr
     new conv_thr            =            1.0E-11 Ry

     new unit-cell volume =    518.53841 a.u.^3 (    76.83946 Ang^3 )
     density =      0.51911 g/cm^3

[...]

ATOMIC_POSITIONS (crystal)
C             0.3333333330        0.6666666660        0.5000000000
C             0.6666666660        0.3333333330        0.5000000000

     Writing config-only to output data dir ../tmp/gr.save/
     NEW-OLD atomic charge density approx. for the potential
     extrapolated charge    8.00529, renormalised to    8.00000

[...]

     Threshold (ethr) on eigenvalues was too large:
     Diagonalizing with lowered threshold

     Davidson diagonalization with overlap
     ethr =  8.54E-08,  avg # of iterations =  1.0

[...]

          k =-0.0000 0.0975 0.0000 (  6493 PWs)   bands (ev):

[...]

     Energy error            =      1.1E-06 Ry
     Gradient error          =      0.0E+00 Ry/Bohr
     Cell gradient error     =      2.4E-02 kbar

     bfgs converged in   4 scf cycles and   3 bfgs steps
     (criteria: energy <  1.0E-05 Ry, force <  1.0E-04Ry/Bohr, cell <  5.0E-02kbar)

     End of BFGS Geometry Optimization

     Final enthalpy           =     -22.8368740807 Ry

     File ../tmp/gr.bfgs deleted, as requested
Begin final coordinates
     new unit-cell volume =    518.53841 a.u.^3 (    76.83946 Ang^3 )
     density =      0.51911 g/cm^3

CELL_PARAMETERS (alat=  4.65610675)
   0.987090923   0.000000000   0.000000000
  -0.493545462   0.854845815   0.000000000
   0.000000000   0.000000000   6.087895618

ATOMIC_POSITIONS (crystal)
C             0.3333333330        0.6666666660        0.5000000000
C             0.6666666660        0.3333333330        0.5000000000
End final coordinates

     Writing config-only to output data dir ../tmp/gr.save/

     Final scf calculation at the relaxed structure.
     The G-vectors are recalculated for the final unit cell
     Results may differ from those at the preceding step.

     Using Slab Decomposition

     bravais-lattice index     =            4
     lattice parameter (alat)  =       4.6561  a.u.
     unit-cell volume          =     518.5384 (a.u.)^3
     number of atoms/cell      =            2
     number of atomic types    =            1
     number of electrons       =         8.00
     number of Kohn-Sham states=            8
     kinetic-energy cutoff     =      80.0000  Ry
     charge density cutoff     =     320.0000  Ry
     scf convergence threshold =      1.0E-11
     mixing beta               =       0.7000
     number of iterations used =            8  plain     mixing
     press convergence thresh. =      5.0E-02
     Exchange-correlation= SLA-PZ-NOGX-NOGC
                           (   1   1   0   0   0   0   0)

     celldm(1)=   4.656107  celldm(2)=   0.000000  celldm(3)=   6.087896
     celldm(4)=   0.000000  celldm(5)=   0.000000  celldm(6)=   0.000000

     crystal axes: (cart. coord. in units of alat)
               a(1) = (   0.987091   0.000000   0.000000 )
               a(2) = (  -0.493545   0.854846   0.000000 )
               a(3) = (   0.000000   0.000000   6.087896 )

     reciprocal axes: (cart. coord. in units 2 pi/alat)
               b(1) = (  1.013078  0.584901 -0.000000 )
               b(2) = ( -0.000000  1.169802  0.000000 )
               b(3) = (  0.000000 -0.000000  0.164260 )

     PseudoPot. # 1 for C  read from file:
     ../pseudo/C.pz-hgh.UPF
     MD5 check sum: 6f4c38613180f901a5a79202410654b3
     Pseudo is Norm-conserving, Zval =  4.0
     Generated in analytical, separable form
     Using radial grid of 1073 points,  1 beta functions with:
                l(1) =   0

     atomic species   valence    mass     pseudopotential
        C              4.00    12.01070     C ( 1.00)

     24 Sym. Ops., with inversion, found

   Cartesian axes

     site n.     atom                  positions (alat units)
         1           C   tau(   1) = (   0.0000000   0.5698972   3.0439478  )
         2           C   tau(   2) = (   0.4935455   0.2849486   3.0439478  )

     number of k points=    19  Marzari-Vanderbilt smearing, width (Ry)=  0.0200
                       cart. coord. in units 2pi/alat
        k(    1) = (   0.0000000   0.0000000   0.0000000), wk =   0.0138889
        k(    2) = (  -0.0000000   0.0974835   0.0000000), wk =   0.0833333
        k(    3) = (  -0.0000000   0.1949669   0.0000000), wk =   0.0833333
        k(    4) = (  -0.0000000   0.2924504   0.0000000), wk =   0.0833333
        k(    5) = (  -0.0000000   0.3899339   0.0000000), wk =   0.0833333
        k(    6) = (  -0.0000000   0.4874173   0.0000000), wk =   0.0833333
        k(    7) = (   0.0000000  -0.5849008   0.0000000), wk =   0.0416667
        k(    8) = (   0.0844232   0.1462252   0.0000000), wk =   0.0833333
        k(    9) = (   0.0844232   0.2437087   0.0000000), wk =   0.1666667
        k(   10) = (   0.0844232   0.3411921   0.0000000), wk =   0.1666667
        k(   11) = (   0.0844232   0.4386756   0.0000000), wk =   0.1666667
        k(   12) = (   0.0844232   0.5361591   0.0000000), wk =   0.1666667
        k(   13) = (   0.1688463   0.2924504   0.0000000), wk =   0.0833333
        k(   14) = (   0.1688463   0.3899339   0.0000000), wk =   0.1666667
        k(   15) = (   0.1688463   0.4874173   0.0000000), wk =   0.1666667
        k(   16) = (   0.1688463   0.5849008   0.0000000), wk =   0.0833333
        k(   17) = (   0.2532695   0.4386756   0.0000000), wk =   0.0833333
        k(   18) = (   0.2532695   0.5361591   0.0000000), wk =   0.1666667
        k(   19) = (   0.3376926   0.5849008   0.0000000), wk =   0.0277778

     Initial potential from superposition of free atoms

     starting charge       7.9999, renormalised to       8.0000

     negative rho (up, down):  1.660E-06 0.000E+00
     Starting wfcs are    8 randomized atomic wfcs

     Self-consistent Calculation

     iteration #  1     ecut=    80.00 Ry     beta= 0.70
     Davidson diagonalization with overlap
     c_bands:  2 eigenvalues not converged
     c_bands:  1 eigenvalues not converged
     c_bands:  1 eigenvalues not converged
     c_bands:  1 eigenvalues not converged
     c_bands:  1 eigenvalues not converged
     c_bands:  1 eigenvalues not converged
     c_bands:  1 eigenvalues not converged
     c_bands:  1 eigenvalues not converged
     c_bands:  1 eigenvalues not converged
     ethr =  1.00E-06,  avg # of iterations = 18.3

     negative rho (up, down):  5.069E-08 0.000E+00

[...]

     total energy              =     -22.83509192 Ry
     estimated scf accuracy    <          9.4E-10 Ry

     iteration #  7     ecut=    80.00 Ry     beta= 0.70
     Davidson diagonalization with overlap
     ethr =  1.18E-11,  avg # of iterations =  2.6

     End of self-consistent calculation

[...]

          k =-0.0000 0.4874 0.0000 (  6246 PWs)   bands (ev):

[...]

          k = 0.3377 0.5849 0.0000 (  6246 PWs)   bands (ev):

   -14.3750 -14.3750 -12.7626  -1.8446  -1.8446   8.5881  11.2910  11.2910

     the Fermi energy is    -1.8067 ev

!    total energy              =     -22.83509192 Ry
     estimated scf accuracy    <          4.7E-12 Ry
     smearing contrib. (-TS)   =      -0.00018232 Ry
     internal energy E=F+TS    =     -22.83490959 Ry

     The total energy is F=E-TS. E is the sum of the following terms:
     one-electron contribution =    -161.86299798 Ry
     hartree contribution      =      82.24465574 Ry
     xc contribution           =      -6.99281284 Ry
     ewald contribution        =      63.77624549 Ry

     convergence has been achieved in   7 iterations

     Forces acting on atoms (cartesian axes, Ry/au):

     atom    1 type  1   force =     0.00000000    0.00000000    0.00000000
     atom    2 type  1   force =    -0.00000000    0.00000000    0.00000000

     Total force =     0.000000     Total SCF correction =     0.000000

     Computing stress (Cartesian axis) and pressure

          total   stress  (Ry/bohr**3)                   (kbar)     P=       -6.72
  -0.00001085   0.00000000  -0.00000000           -1.60        0.00       -0.00
  -0.00000000  -0.00001085   0.00000000           -0.00       -1.60        0.00
  -0.00000000   0.00000000  -0.00011543           -0.00        0.00      -16.98

     Writing all to output data dir ../tmp/gr.save/

     General routines

   This run was terminated on:   0:43:26  25Aug2023

   JOB DONE.