     Program PWSCF v.7.0 starts on 25Aug2023 at  0:31:16

     Waiting for input...
     Reading input from standard input

     Current dimensions of program PWSCF are:
     Max number of different atomic species (ntypx) = 10
     Max number of k-points (npk) =  40000
     Max angular momentum in pseudopotentials (lmaxx) =  4

     Using Slab Decomposition

     bravais-lattice index     =            4
     lattice parameter (alat)  =       4.6561  a.u.
     unit-cell volume          =     532.1899 (a.u.)^3
     number of atoms/cell      =            2
     number of atomic types    =            1
     number of electrons       =         8.00
     number of Kohn-Sham states=            8
     kinetic-energy cutoff     =      80.0000  Ry
     charge density cutoff     =     320.0000  Ry
     scf convergence threshold =      1.0E-09
     mixing beta               =       0.7000
     number of iterations used =            8  plain     mixing
     energy convergence thresh.=      1.0E-05
     force convergence thresh. =      1.0E-04
     press convergence thresh. =      5.0E-02
     Exchange-correlation= PBE
                           (   1   4   3   4   0   0   0)
     nstep                     =           50

     celldm(1)=   4.656107  celldm(2)=   0.000000  celldm(3)=   6.087896
     celldm(4)=   0.000000  celldm(5)=   0.000000  celldm(6)=   0.000000

     crystal axes: (cart. coord. in units of alat)
               a(1) = (   1.000000   0.000000   0.000000 )
               a(2) = (  -0.500000   0.866025   0.000000 )
               a(3) = (   0.000000   0.000000   6.087896 )

     reciprocal axes: (cart. coord. in units 2 pi/alat)
               b(1) = (  1.000000  0.577350 -0.000000 )
               b(2) = (  0.000000  1.154701  0.000000 )
               b(3) = (  0.000000 -0.000000  0.164260 )

     PseudoPot. # 1 for C  read from file:
     ../pseudo/C.pbe-n-rrkjus_psl.0.1.UPF
     MD5 check sum: 96a6a315177d77e6c95bf6fd3870f9e3
     Pseudo is Ultrasoft + core correction, Zval =  4.0
     Generated using &quot;atomic&quot; code by A. Dal Corso  v.6.3MaX
     Using radial grid of 1073 points,  4 beta functions with:
                l(1) =   0
                l(2) =   0
                l(3) =   1
                l(4) =   1
     Q(r) pseudized with 0 coefficients

     atomic species   valence    mass     pseudopotential
        C              4.00    12.01070     C ( 1.00)

     24 Sym. Ops., with inversion, found

   Cartesian axes

     site n.     atom                  positions (alat units)
         1           C   tau(   1) = (   0.0000000   0.5773503   3.0439478  )
         2           C   tau(   2) = (   0.5000000   0.2886751   3.0439478  )

     number of k points=    19  Marzari-Vanderbilt smearing, width (Ry)=  0.0200
                       cart. coord. in units 2pi/alat
        k(    1) = (   0.0000000   0.0000000   0.0000000), wk =   0.0138889
        k(    2) = (   0.0000000   0.0962250   0.0000000), wk =   0.0833333
        k(    3) = (   0.0000000   0.1924501   0.0000000), wk =   0.0833333
        k(    4) = (   0.0000000   0.2886751   0.0000000), wk =   0.0833333
        k(    5) = (   0.0000000   0.3849002   0.0000000), wk =   0.0833333
        k(    6) = (   0.0000000   0.4811252   0.0000000), wk =   0.0833333
        k(    7) = (   0.0000000  -0.5773503   0.0000000), wk =   0.0416667
        k(    8) = (   0.0833333   0.1443376   0.0000000), wk =   0.0833333
        k(    9) = (   0.0833333   0.2405626   0.0000000), wk =   0.1666667
        k(   10) = (   0.0833333   0.3367877   0.0000000), wk =   0.1666667
        k(   11) = (   0.0833333   0.4330127   0.0000000), wk =   0.1666667
        k(   12) = (   0.0833333   0.5292377   0.0000000), wk =   0.1666667
        k(   13) = (   0.1666667   0.2886751   0.0000000), wk =   0.0833333
        k(   14) = (   0.1666667   0.3849002   0.0000000), wk =   0.1666667
        k(   15) = (   0.1666667   0.4811252   0.0000000), wk =   0.1666667
        k(   16) = (   0.1666667   0.5773503   0.0000000), wk =   0.0833333
        k(   17) = (   0.2500000   0.4330127   0.0000000), wk =   0.0833333
        k(   18) = (   0.2500000   0.5292377   0.0000000), wk =   0.1666667
        k(   19) = (   0.3333333   0.5773503   0.0000000), wk =   0.0277778

     Check: negative core charge=   -0.000001

     Initial potential from superposition of free atoms

     starting charge       7.9999, renormalised to       8.0000

     negative rho (up, down):  5.686E-05 0.000E+00
     Starting wfcs are    8 randomized atomic wfcs

     Self-consistent Calculation

     iteration #  1     ecut=    80.00 Ry     beta= 0.70
     Davidson diagonalization with overlap
     ethr =  1.00E-02,  avg # of iterations =  7.1

     Threshold (ethr) on eigenvalues was too large:
     Diagonalizing with lowered threshold

     Davidson diagonalization with overlap
     ethr =  7.94E-04,  avg # of iterations =  6.7

     negative rho (up, down):  2.388E-08 0.000E+00

     total energy              =     -23.88227220 Ry
     estimated scf accuracy    <       0.18984473 Ry

[...]

     iteration #  3     ecut=    80.00 Ry     beta= 0.70
     Davidson diagonalization with overlap
     c_bands:  3 eigenvalues not converged
     c_bands:  2 eigenvalues not converged
     c_bands:  2 eigenvalues not converged
     c_bands:  1 eigenvalues not converged
     c_bands:  2 eigenvalues not converged
     c_bands:  3 eigenvalues not converged
     c_bands:  1 eigenvalues not converged
     c_bands:  1 eigenvalues not converged
     c_bands:  3 eigenvalues not converged
     c_bands:  1 eigenvalues not converged
     ethr =  7.94E-05,  avg # of iterations = 18.8

[...]

     End of self-consistent calculation

          k = 0.0000 0.0000 0.0000 (  6489 PWs)   bands (ev):

   -21.2470  -9.3497  -4.7890  -4.7890   1.4872   2.3546   2.6944   4.6240

[...]

     the Fermi energy is    -1.6775 ev

!    total energy              =     -23.91025781 Ry
     estimated scf accuracy    <          1.6E-10 Ry
     smearing contrib. (-TS)   =      -0.00018232 Ry
     internal energy E=F+TS    =     -23.91007548 Ry

     The total energy is F=E-TS. E is the sum of the following terms:
     one-electron contribution =    -157.39809376 Ry
     hartree contribution      =      80.16160110 Ry
     xc contribution           =      -8.30322994 Ry
     ewald contribution        =      61.62964712 Ry

     convergence has been achieved in  31 iterations

[...]

     Forces acting on atoms (cartesian axes, Ry/au):

     atom    1 type  1   force =    -0.00000000   -0.00000000    0.00000000
     atom    2 type  1   force =     0.00000000    0.00000000    0.00000000

     Total force =     0.000000     Total SCF correction =     0.000000

     Computing stress (Cartesian axis) and pressure

     negative rho (up, down):  2.304E-05 0.000E+00
          total   stress  (Ry/bohr**3)                   (kbar)     P=        0.28
   0.00000290   0.00000000   0.00000000            0.43        0.00        0.00
   0.00000000   0.00000290  -0.00000000            0.00        0.43       -0.00
   0.00000000   0.00000000  -0.00000006            0.00        0.00       -0.01

     BFGS Geometry Optimization
     Energy error            =      0.0E+00 Ry
     Gradient error          =      1.4E-25 Ry/Bohr
     Cell gradient error     =      4.3E-01 kbar

     number of scf cycles    =   1
     number of bfgs steps    =   0

     enthalpy           new  =     -23.9102578077 Ry

     new trust radius        =       0.0003341711 bohr
     new conv_thr            =       0.0000000010 Ry

     new unit-cell volume =    532.26698 a.u.^3 (    78.87383 Ang^3 )
     density =      0.50573 g/cm^3

CELL_PARAMETERS (alat=  4.65610675)
   1.000072428   0.000000000   0.000000000
  -0.500036214   0.866088128   0.000000000
   0.000000000   0.000000000   6.087895618

ATOMIC_POSITIONS (crystal)
C             0.3333333330        0.6666666660        0.5000000000
C             0.6666666660        0.3333333330        0.5000000000

     Writing config-only to output data dir ../tmp/gr.save/
     NEW-OLD atomic charge density approx. for the potential

[...]

     negative rho (up, down):  2.301E-05 0.000E+00
     extrapolated charge    8.00116, renormalised to    8.00000

[...]

          k =-0.0000 0.0962 0.0000 (  6493 PWs)   bands (ev):

[...]

     Energy error            =      1.7E-07 Ry
     Gradient error          =      1.6E-25 Ry/Bohr
     Cell gradient error     =      2.1E-01 kbar

     number of scf cycles    =   2
     number of bfgs steps    =   1

     enthalpy           old  =     -23.9102578077 Ry
     enthalpy           new  =     -23.9102579751 Ry

     CASE: enthalpy          _new < enthalpy          _old

     new trust radius        =       0.0003258219 bohr
     new conv_thr            =            1.0E-11 Ry

     new unit-cell volume =    532.34215 a.u.^3 (    78.88497 Ang^3 )
     density =      0.50565 g/cm^3

[...]

ATOMIC_POSITIONS (crystal)
C             0.3333333330        0.6666666660        0.5000000000
C             0.6666666660        0.3333333330        0.5000000000

     Writing config-only to output data dir ../tmp/gr.save/
     NEW-OLD atomic charge density approx. for the potential

[...]

     negative rho (up, down):  2.298E-05 0.000E+00
     extrapolated charge    8.00113, renormalised to    8.00000

[...]

     Threshold (ethr) on eigenvalues was too large:
     Diagonalizing with lowered threshold

     Davidson diagonalization with overlap
     ethr =  1.92E-09,  avg # of iterations =  4.1

[...]

     Energy error            =      6.1E-08 Ry
     Gradient error          =      3.2E-25 Ry/Bohr
     Cell gradient error     =      2.4E-02 kbar

     bfgs converged in   3 scf cycles and   2 bfgs steps
     (criteria: energy <  1.0E-05 Ry, force <  1.0E-04Ry/Bohr, cell <  5.0E-02kbar)

     End of BFGS Geometry Optimization

     Final enthalpy           =     -23.9102580362 Ry

     File ../tmp/gr.bfgs deleted, as requested
Begin final coordinates
     new unit-cell volume =    532.34215 a.u.^3 (    78.88497 Ang^3 )
     density =      0.50565 g/cm^3

CELL_PARAMETERS (alat=  4.65610675)
   1.000143046   0.000000000   0.000000000
  -0.500071523   0.866149285   0.000000000
   0.000000000   0.000000000   6.087895618

ATOMIC_POSITIONS (crystal)
C             0.3333333330        0.6666666660        0.5000000000
C             0.6666666660        0.3333333330        0.5000000000
End final coordinates

     Writing config-only to output data dir ../tmp/gr.save/

     Final scf calculation at the relaxed structure.
     The G-vectors are recalculated for the final unit cell
     Results may differ from those at the preceding step.

     Using Slab Decomposition

     bravais-lattice index     =            4
     lattice parameter (alat)  =       4.6561  a.u.
     unit-cell volume          =     532.3422 (a.u.)^3
     number of atoms/cell      =            2
     number of atomic types    =            1
     number of electrons       =         8.00
     number of Kohn-Sham states=            8
     kinetic-energy cutoff     =      80.0000  Ry
     charge density cutoff     =     320.0000  Ry
     scf convergence threshold =      1.0E-11
     mixing beta               =       0.7000
     number of iterations used =            8  plain     mixing
     press convergence thresh. =      5.0E-02
     Exchange-correlation= PBE
                           (   1   4   3   4   0   0   0)

     celldm(1)=   4.656107  celldm(2)=   0.000000  celldm(3)=   6.087896
     celldm(4)=   0.000000  celldm(5)=   0.000000  celldm(6)=   0.000000

     crystal axes: (cart. coord. in units of alat)
               a(1) = (   1.000143   0.000000   0.000000 )
               a(2) = (  -0.500072   0.866149   0.000000 )
               a(3) = (   0.000000   0.000000   6.087896 )

     reciprocal axes: (cart. coord. in units 2 pi/alat)
               b(1) = (  0.999857  0.577268 -0.000000 )
               b(2) = ( -0.000000  1.154535  0.000000 )
               b(3) = (  0.000000 -0.000000  0.164260 )

     PseudoPot. # 1 for C  read from file:
     ../pseudo/C.pbe-n-rrkjus_psl.0.1.UPF
     MD5 check sum: 96a6a315177d77e6c95bf6fd3870f9e3
     Pseudo is Ultrasoft + core correction, Zval =  4.0
     Generated using &quot;atomic&quot; code by A. Dal Corso  v.6.3MaX
     Using radial grid of 1073 points,  4 beta functions with:
                l(1) =   0
                l(2) =   0
                l(3) =   1
                l(4) =   1
     Q(r) pseudized with 0 coefficients

     atomic species   valence    mass     pseudopotential
        C              4.00    12.01070     C ( 1.00)

     24 Sym. Ops., with inversion, found

   Cartesian axes

     site n.     atom                  positions (alat units)
         1           C   tau(   1) = (   0.0000000   0.5774329   3.0439478  )
         2           C   tau(   2) = (   0.5000715   0.2887164   3.0439478  )

     number of k points=    19  Marzari-Vanderbilt smearing, width (Ry)=  0.0200
                       cart. coord. in units 2pi/alat
        k(    1) = (   0.0000000   0.0000000   0.0000000), wk =   0.0138889
        k(    2) = (  -0.0000000   0.0962113   0.0000000), wk =   0.0833333
        k(    3) = (  -0.0000000   0.1924226   0.0000000), wk =   0.0833333
        k(    4) = (  -0.0000000   0.2886338   0.0000000), wk =   0.0833333
        k(    5) = (  -0.0000000   0.3848451   0.0000000), wk =   0.0833333
        k(    6) = (  -0.0000000   0.4810564   0.0000000), wk =   0.0833333
        k(    7) = (   0.0000000  -0.5772677   0.0000000), wk =   0.0416667
        k(    8) = (   0.0833214   0.1443169   0.0000000), wk =   0.0833333
        k(    9) = (   0.0833214   0.2405282   0.0000000), wk =   0.1666667
        k(   10) = (   0.0833214   0.3367395   0.0000000), wk =   0.1666667
        k(   11) = (   0.0833214   0.4329508   0.0000000), wk =   0.1666667
        k(   12) = (   0.0833214   0.5291621   0.0000000), wk =   0.1666667
        k(   13) = (   0.1666428   0.2886338   0.0000000), wk =   0.0833333
        k(   14) = (   0.1666428   0.3848451   0.0000000), wk =   0.1666667
        k(   15) = (   0.1666428   0.4810564   0.0000000), wk =   0.1666667
        k(   16) = (   0.1666428   0.5772677   0.0000000), wk =   0.0833333
        k(   17) = (   0.2499642   0.4329508   0.0000000), wk =   0.0833333
        k(   18) = (   0.2499642   0.5291621   0.0000000), wk =   0.1666667
        k(   19) = (   0.3332857   0.5772677   0.0000000), wk =   0.0277778

     Check: negative core charge=   -0.000001

     Initial potential from superposition of free atoms

     starting charge       7.9999, renormalised to       8.0000

     negative rho (up, down):  5.689E-05 0.000E+00
     Starting wfcs are    8 randomized atomic wfcs

     Self-consistent Calculation

[...]

     iteration #  8     ecut=    80.00 Ry     beta= 0.70
     Davidson diagonalization with overlap
     c_bands:  1 eigenvalues not converged
     ethr =  1.97E-06,  avg # of iterations =  4.2

[...]

     total energy              =     -23.91025808 Ry
     estimated scf accuracy    <          2.2E-11 Ry

     iteration # 30     ecut=    80.00 Ry     beta= 0.70
     Davidson diagonalization with overlap
     ethr =  2.72E-13,  avg # of iterations =  4.2

[...]

     End of self-consistent calculation

[...]

          k =-0.0000 0.4811 0.0000 (  6418 PWs)   bands (ev):

[...]

          k = 0.3333 0.5773 0.0000 (  6408 PWs)   bands (ev):

   -14.3249 -14.3249 -12.3081  -1.7170  -1.7170   8.9010  11.1632  11.1632

     the Fermi energy is    -1.6790 ev

!    total energy              =     -23.91025808 Ry
     estimated scf accuracy    <          1.5E-12 Ry
     smearing contrib. (-TS)   =      -0.00018232 Ry
     internal energy E=F+TS    =     -23.91007576 Ry

     The total energy is F=E-TS. E is the sum of the following terms:
     one-electron contribution =    -157.35190777 Ry
     hartree contribution      =      80.13805110 Ry
     xc contribution           =      -8.30258140 Ry
     ewald contribution        =      61.60636231 Ry

     convergence has been achieved in  30 iterations

     negative rho (up, down):  2.297E-05 0.000E+00

     Forces acting on atoms (cartesian axes, Ry/au):

     atom    1 type  1   force =     0.00000000    0.00000000    0.00000000
     atom    2 type  1   force =    -0.00000000    0.00000000    0.00000000

     Total force =     0.000000     Total SCF correction =     0.000000

     Computing stress (Cartesian axis) and pressure

     negative rho (up, down):  2.297E-05 0.000E+00
          total   stress  (Ry/bohr**3)                   (kbar)     P=        0.01
   0.00000016   0.00000000   0.00000000            0.02        0.00        0.00
   0.00000000   0.00000016  -0.00000000            0.00        0.02       -0.00
   0.00000000  -0.00000000  -0.00000020            0.00       -0.00       -0.03

     Writing all to output data dir ../tmp/gr.save/

     General routines

   This run was terminated on:   0:34:19  25Aug2023

   JOB DONE.